Primitive Cell
  1.000000
   -5.17037800000000    5.17037800000000    5.17037800000000
    5.17037800000000   -5.17037800000000    5.17037800000000
    5.17037800000000    5.17037800000000   -5.17037800000000
  Cl  Zr  Ni
  15   6   1
DIRECT
    0.4960510000000000    0.2480255000000001    0.2480255000000001    Cl1
    0.5039490000000000    0.7519745000000000    0.7519745000000000    Cl2
    0.2480255000000001    0.0000000000000000    0.7519745000000000    Cl3
    0.7519745000000000    0.0000000000000000    0.2480255000000001    Cl4
    0.0000000000000000    0.2480255000000001    0.7519745000000000    Cl5
    0.0000000000000000    0.7519745000000000    0.2480255000000001    Cl6
    0.2480255000000001    0.4960510000000000    0.2480255000000001    Cl7
    0.7519745000000000    0.5039490000000000    0.7519745000000000    Cl8
    0.7519745000000000    0.2480255000000001    0.0000000000000000    Cl9
    0.2480255000000001    0.7519745000000000    0.0000000000000000   Cl10
    0.2480255000000001    0.2480255000000001    0.4960510000000000   Cl11
    0.7519745000000000    0.7519745000000000    0.5039490000000000   Cl12
    0.5000000000000000    0.5000000000000000    0.0000000000000001   Cl13
    0.0000000000000001    0.5000000000000000    0.5000000000000000   Cl14
    0.5000000000000000    0.0000000000000001    0.5000000000000000   Cl15
    0.2425210000000003    0.2425210000000003    0.0000000000000001    Zr1
    0.7574789999999998    0.7574789999999998    0.0000000000000001    Zr2
    0.0000000000000001    0.2425210000000003    0.2425210000000003    Zr3
    0.0000000000000001    0.7574789999999998    0.7574789999999998    Zr4
    0.2425210000000003    0.0000000000000001    0.2425210000000003    Zr5
    0.7574789999999998    0.0000000000000001    0.7574789999999998    Zr6
    0.0000000000000001    0.0000000000000001    0.0000000000000001    Ni1
