Primitive Cell
   1.00000000000000
     4.4298179858553057    0.0000000000000000    0.0000000000000000
     0.0000000000000000    4.4298179858553057    0.0000000000000000
     0.0000000000000000    0.0000000000000000    4.4298179858553057
   Co   Si
     4     4
Direct
  0.1450847607596346  0.1450847607596346  0.1450847607596346
  0.3549152392403654  0.8549152392403654  0.6450847607596346
  0.6450847607596346  0.3549152392403654  0.8549152392403654
  0.8549152392403654  0.6450847607596346  0.3549152392403654
  0.1568075234815523  0.3431924765184477  0.6568075234815522
  0.3431924765184477  0.6568075234815522  0.1568075234815523
  0.6568075234815522  0.1568075234815523  0.3431924765184477
  0.8431924765184478  0.8431924765184478  0.8431924765184478