Primitive Cell
  1.000000
    0.00000000000000    5.30522300000000    5.30522300000000
    5.30522300000000    0.00000000000000    5.30522300000000
    5.30522300000000    5.30522300000000    0.00000000000000
  Cl  Cs  Mo
   6   2   1
DIRECT
    0.2265590000000000    0.2265590000000000    0.7734410000000000    Cl1
    0.7734410000000000    0.7734410000000000    0.2265590000000000    Cl2
    0.7734410000000000    0.2265590000000000    0.2265590000000000    Cl3
    0.2265590000000000    0.7734410000000000    0.7734410000000000    Cl4
    0.2265590000000000    0.7734410000000000    0.2265590000000000    Cl5
    0.7734410000000000    0.2265590000000000    0.7734410000000000    Cl6
    0.2500000000000000    0.2500000000000000    0.2500000000000000    Cs1
    0.7500000000000000    0.7500000000000000    0.7500000000000000    Cs2
    0.0000000000000000    0.0000000000000000    0.0000000000000000    Mo1
