Primitive Cell
  1.000000
   -4.83233400000000    4.83233400000000    4.83233400000000
    4.83233400000000   -4.83233400000000    4.83233400000000
    4.83233400000000    4.83233400000000   -4.83233400000000
  Mo  Sb
   6  14
DIRECT
    0.3422000000000001    0.3422000000000001    0.0000000000000000    Mo1
    0.6577999999999999    0.6577999999999999    0.0000000000000000    Mo2
    0.0000000000000000    0.3422000000000001    0.3422000000000001    Mo3
    0.0000000000000000    0.6577999999999999    0.6577999999999999    Mo4
    0.3422000000000001    0.0000000000000000    0.3422000000000001    Mo5
    0.6577999999999999    0.0000000000000000    0.6577999999999999    Mo6
    0.3215850000000000    0.3215850000000000    0.3215850000000000    Sb1
    0.6784150000000000    0.6784150000000000    0.6784150000000000    Sb2
    0.3215849999999999   -0.0000000000000001   -0.0000000000000001    Sb3
    0.6784150000000001    0.0000000000000001    0.0000000000000001    Sb4
   -0.0000000000000001   -0.0000000000000001    0.6784150000000000    Sb5
    0.0000000000000001    0.0000000000000001    0.3215850000000000    Sb6
   -0.0000000000000001    0.3215849999999999   -0.0000000000000001    Sb7
    0.0000000000000001    0.6784150000000001    0.0000000000000001    Sb8
    0.7500000000000000    0.5000000000000000    0.2500000000000000    Sb9
    0.2500000000000000    0.5000000000000000    0.7500000000000000   Sb10
    0.5000000000000000    0.2500000000000000    0.7500000000000000   Sb11
    0.5000000000000000    0.7500000000000000    0.2500000000000000   Sb12
    0.2500000000000000    0.7500000000000000    0.5000000000000000   Sb13
    0.7500000000000000    0.2500000000000000    0.5000000000000000   Sb14
