Primitive Cell
  1.000000
    0.00000000000000    5.26563500000000    5.26563500000000
    5.26563500000000    0.00000000000000    5.26563500000000
    5.26563500000000    5.26563500000000    0.00000000000000
  K   Os  Br
   2   1   6
DIRECT
    0.2500000000000000    0.2500000000000000    0.2500000000000000     K1
    0.7500000000000000    0.7500000000000000    0.7500000000000000     K2
    0.0000000000000000    0.0000000000000000    0.0000000000000000    Os1
    0.2380740000000001    0.2380740000000001    0.7619259999999999    Br1
    0.7619259999999999    0.7619259999999999    0.2380740000000001    Br2
    0.7619259999999999    0.2380740000000001    0.2380740000000001    Br3
    0.2380740000000001    0.7619259999999999    0.7619259999999999    Br4
    0.2380740000000001    0.7619259999999999    0.2380740000000001    Br5
    0.7619259999999999    0.2380740000000001    0.7619259999999999    Br6
