Primitive Cell
  1.000000
    4.83940200000000    0.00000000000000    0.00000000000000
    0.00000000000000    4.83940200000000    0.00000000000000
    0.00000000000000    0.00000000000000    4.83940200000000
  Eu  F   Cs
   1   3   1
DIRECT
    0.5000000000000000    0.5000000000000000    0.5000000000000000    Eu1
    0.0000000000000000    0.5000000000000000    0.5000000000000000     F1
    0.5000000000000000    0.0000000000000000    0.5000000000000000     F2
    0.5000000000000000    0.5000000000000000    0.0000000000000000     F3
    0.0000000000000000    0.0000000000000000    0.0000000000000000    Cs1
