Primitive Cell
  1.000000
    0.00000000000000    3.27200300000000    3.27200300000000
    3.27200300000000    0.00000000000000    3.27200300000000
    3.27200300000000    3.27200300000000    0.00000000000000
  Eu  Te
   1   1
DIRECT
    0.0000000000000000    0.0000000000000000    0.0000000000000000    Eu1
    0.5000000000000000    0.5000000000000000    0.5000000000000000    Te1
