POSCAR
   1.00000000000000
     6.6834278100000004    0.0000000000000000    0.0000000000000000
     0.0000000000000000    7.1251897800000004    0.0000000000000000
     0.0000000000000000    0.0000000000000000    4.4696578999999996
   Eu   F
     4    12
Direct
  0.1186770921685762  0.7500424048018182  0.5647781891463433
  0.8813426908802743  0.2499574069377374  0.4351821783762961
  0.3812327216468523  0.2500428495993167  0.0648163610705411
  0.6187592791506571  0.7499820269058243  0.9351893543884729
  0.1741447218555177  0.0548656332463971  0.3662459562083362
  0.8258559212542975  0.9450572643592006  0.6336686906551537
  0.3258525867131274  0.9451377294281196  0.8663261250062160
  0.6741415739433644  0.0548864983841457  0.1336521227321379
  0.6741496884541506  0.4451475684766570  0.1336648539439621
  0.3258660962411039  0.5548965905856067  0.8664254301444952
  0.8258367835726941  0.5549353087109566  0.6337172862438245
  0.1741442434652612  0.4450623140948357  0.3663019765726241
  0.0281372587618139  0.2499612302721631  0.9280047537273400
  0.9718688188157250  0.7499927468443118  0.0719507934002303
  0.4718796390972083  0.7500310744950522  0.4280802200465240
  0.5281108555508667  0.2500013304022914  0.5719956591167223