Primitive Cell
  1.000000
    0.00000000000000    5.39827600000000    5.39827600000000
    5.39827600000000    0.00000000000000    5.39827600000000
    5.39827600000000    5.39827600000000    0.00000000000000
  Br  Rb  W 
   6   2   1
DIRECT
    0.2369250000000001    0.2369250000000001    0.7630749999999999    Br1
    0.7630749999999999    0.7630749999999999    0.2369250000000001    Br2
    0.7630749999999999    0.2369250000000001    0.2369250000000001    Br3
    0.2369250000000001    0.7630749999999999    0.7630749999999999    Br4
    0.2369250000000001    0.7630749999999999    0.2369250000000001    Br5
    0.7630749999999999    0.2369250000000001    0.7630749999999999    Br6
    0.2500000000000000    0.2500000000000000    0.2500000000000000    Rb1
    0.7500000000000000    0.7500000000000000    0.7500000000000000    Rb2
    0.0000000000000000    0.0000000000000000    0.0000000000000000     W1
