Primitive Cell
  1.000000
    0.00000000000000    4.31998800000000    4.31998800000000
    4.31998800000000    0.00000000000000    4.31998800000000
    4.31998800000000    4.31998800000000    0.00000000000000
  Pr  Ba  O   Pt
   1   2   6   1
DIRECT
    0.5000000000000000    0.5000000000000000    0.5000000000000000    Pr1
    0.2500000000000000    0.2500000000000000    0.2500000000000000    Ba1
    0.7500000000000000    0.7500000000000000    0.7500000000000000    Ba2
    0.2317910000000000    0.2317910000000000    0.7682089999999999     O1
    0.7682090000000000    0.7682090000000000    0.2317910000000000     O2
    0.7682090000000000    0.2317909999999999    0.2317909999999999     O3
    0.2317910000000000    0.7682090000000000    0.7682090000000000     O4
    0.2317910000000000    0.7682090000000000    0.2317910000000000     O5
    0.7682090000000001    0.2317909999999999    0.7682090000000001     O6
    0.0000000000000000    0.0000000000000000    0.0000000000000000    Pt1
