Primitive Cell
  1.000000
    6.24759438189621    0.00000000000000    0.00000000000000
   -3.12379719094811    5.41057544726306    0.00000000000000
    0.00000000000000    0.00000000000000   12.26531700000000
  Ca  N   Fe
  12  10   2
DIRECT
    0.0000000000000000    0.3968920000000001    0.6201369999999999    Ca1
   -0.0000000000000000    0.6031079999999999    0.3798630000000001    Ca2
    0.6031080000000000    0.0000000000000000    0.1201370000000002    Ca3
    0.3968920000000000    0.0000000000000000    0.8798630000000000    Ca4
    0.6031080000000000    0.6031079999999999    0.6201369999999999    Ca5
    0.3968920000000001    0.3968920000000001    0.3798630000000001    Ca6
   -0.0000000000000000    0.6031079999999999    0.1201370000000002    Ca7
    0.0000000000000000    0.3968920000000001    0.8798630000000000    Ca8
    0.3968920000000000    0.0000000000000000    0.6201369999999999    Ca9
    0.6031080000000000    0.0000000000000000    0.3798630000000001   Ca10
    0.3968920000000001    0.3968920000000001    0.1201370000000002   Ca11
    0.6031080000000000    0.6031079999999999    0.8798630000000000   Ca12
    0.0000000000000000    0.2876140000000000    0.2500000000000001     N1
   -0.0000000000000000    0.7123860000000000    0.7500000000000000     N2
    0.7123860000000000    0.0000000000000000    0.7500000000000000     N3
    0.2876140000000000    0.0000000000000000    0.2500000000000001     N4
    0.7123860000000000    0.7123860000000000    0.2500000000000001     N5
    0.2876140000000000    0.2876140000000000    0.7500000000000000     N6
    0.3333333333333333    0.6666666666666665    0.0000000000000000     N7
    0.6666666666666667    0.3333333333333334    0.0000000000000000     N8
    0.6666666666666667    0.3333333333333334    0.4999999999999999     N9
    0.3333333333333333    0.6666666666666667    0.4999999999999999    N10
    0.0000000000000000    0.0000000000000000    0.2500000000000001    Fe1
    0.0000000000000000    0.0000000000000000    0.7500000000000000    Fe2
