Primitive Cell
  1.000000
    5.77276700000000    0.00000000000000    0.00000000000000
    0.00000000000000    5.77276700000000    0.00000000000000
    0.00000000000000    0.00000000000000    5.77276700000000
  S   Rh
   8   4
DIRECT
    0.1090880000000000    0.6090880000000000    0.8909120000000000     S1
    0.8909120000000000    0.3909120000000000    0.1090880000000000     S2
    0.3909120000000000    0.3909120000000000    0.3909120000000001     S3
    0.6090880000000000    0.6090880000000000    0.6090880000000000     S4
    0.6090880000000000    0.8909120000000000    0.1090880000000000     S5
    0.3909120000000000    0.1090879999999999    0.8909120000000000     S6
    0.8909120000000000    0.1090879999999999    0.6090880000000000     S7
    0.1090880000000000    0.8909120000000000    0.3909120000000001     S8
    0.0000000000000000    0.0000000000000000    0.0000000000000000    Rh1
    0.5000000000000000    0.0000000000000000    0.5000000000000000    Rh2
    0.5000000000000000    0.5000000000000000    0.0000000000000000    Rh3
    0.0000000000000000    0.5000000000000000    0.5000000000000000    Rh4
