Primitive Cell
  1.000000
   13.31256000000000    0.00000000000000    0.00000000000000
    0.00000000000000   14.08290900000000    0.00000000000000
    0.00000000000000    0.00000000000000    4.07918400000000
  Tb  Si  Br
   8   2  12
DIRECT
    0.1179980000000000    0.5781990000000000    0.0000000000000000    Tb1
    0.8820020000000000    0.4218010000000000    0.0000000000000000    Tb2
    0.6179980000000000    0.9218010000000000    0.0000000000000000    Tb3
    0.3820020000000000    0.0781990000000001    0.0000000000000000    Tb4
    0.1183920000000000    0.3408969999999999    0.5000000000000000    Tb5
    0.8816079999999999    0.6591030000000001    0.5000000000000000    Tb6
    0.6183920000000001    0.1591030000000001    0.5000000000000000    Tb7
    0.3816080000000000    0.8408969999999999    0.5000000000000000    Tb8
    0.0000000000000000    0.5000000000000000    0.5000000000000000    Si1
    0.5000000000000000    0.0000000000000000    0.5000000000000000    Si2
    0.0015370000000000    0.2434799999999999    0.0000000000000000    Br1
    0.9984630000000000    0.7565200000000001    0.0000000000000000    Br2
    0.5015370000000000    0.2565200000000001    0.0000000000000000    Br3
    0.4984630000000000    0.7434799999999999    0.0000000000000000    Br4
    0.2437050000000000    0.1623130000000000    0.5000000000000000    Br5
    0.7562949999999999    0.8376870000000001    0.5000000000000000    Br6
    0.7437050000000001    0.3376870000000001    0.5000000000000000    Br7
    0.2562950000000000    0.6623129999999999    0.5000000000000000    Br8
    0.2449210000000000    0.9114369999999999    0.0000000000000000    Br9
    0.7550790000000001    0.0885630000000001    0.0000000000000000   Br10
    0.7449209999999999    0.5885630000000001    0.0000000000000000   Br11
    0.2550790000000000    0.4114369999999998    0.0000000000000000   Br12
