Primitive Cell
  1.000000
    0.00000000000000    5.47524100000000    5.47524100000000
    5.47524100000000    0.00000000000000    5.47524100000000
    5.47524100000000    5.47524100000000    0.00000000000000
  Se  I   Nb
   4   4   4
DIRECT
    0.3691076700000000    0.3691076700000000    0.8926769900000000    Se1
    0.3691076700000000    0.8926769900000000    0.3691076700000000    Se2
    0.3691076700000000    0.3691076700000000    0.3691076700000000    Se3
    0.8926769900000000    0.3691076700000000    0.3691076700000000    Se4
    0.8721909999999999    0.8721909999999999    0.3834270000000002     I1
    0.8721909999999999    0.3834270000000002    0.8721909999999999     I2
    0.8721909999999999    0.8721909999999999    0.8721909999999999     I3
    0.3834270000000002    0.8721909999999999    0.8721909999999999     I4
    0.5981799999999999    0.5981800000000002    0.5981799999999999    Nb1
    0.2054599999999999    0.5981800000000002    0.5981799999999999    Nb2
    0.5981800000000002    0.5981799999999998    0.2054599999999999    Nb3
    0.5981800000000002    0.2054599999999999    0.5981799999999998    Nb4
