Primitive Cell
  1.000000
    0.00000000000000    5.56940100000000    5.56940100000000
    5.56940100000000    0.00000000000000    5.56940100000000
    5.56940100000000    5.56940100000000    0.00000000000000
  Br  W   Cs
   6   1   2
DIRECT
    0.2297370000000001    0.2297370000000001    0.7702629999999999    Br1
    0.7702629999999999    0.7702629999999999    0.2297370000000002    Br2
    0.7702629999999999    0.2297370000000001    0.2297370000000001    Br3
    0.2297370000000001    0.7702629999999999    0.7702629999999999    Br4
    0.2297370000000001    0.7702629999999999    0.2297370000000001    Br5
    0.7702629999999999    0.2297370000000001    0.7702629999999999    Br6
    0.0000000000000000    0.0000000000000000    0.0000000000000000     W1
    0.2500000000000000    0.2500000000000000    0.2500000000000000    Cs1
    0.7500000000000000    0.7500000000000000    0.7500000000000000    Cs2
