Primitive Cell
   1.00000000000000
     4.5888712138177166    0.0000000000000000   -0.0000000000000000
    -2.2944356069088583    3.9740790458612851    0.0000000000000000
     0.0000000000000000    0.0000000000000000    7.3469351828861313
   Li   Sb   Ce
     3     2     1
Direct
  0.3333333333333357  0.6666666666666643  0.6464197056268807
  0.6666666666666643  0.3333333333333357  0.3535802943731194
 -0.0000000000000000 -0.0000000000000000  0.5000000000000000
  0.3333333333333357  0.6666666666666643  0.2546155469990213
  0.6666666666666643  0.3333333333333357  0.7453844530009799
 -0.0000000000000000 -0.0000000000000000  0.0000000000000000