Primitive Cell
  1.000000
    0.00000000000000    4.28242000000000    4.28242000000000
    4.28242000000000    0.00000000000000    4.28242000000000
    4.28242000000000    4.28242000000000    0.00000000000000
  O   Ba  Ta  Yb
   6   2   1   1
DIRECT
    0.2338730000000000    0.2338730000000000    0.7661270000000000     O1
    0.7661270000000000    0.7661270000000000    0.2338730000000000     O2
    0.7661270000000000    0.2338730000000000    0.2338730000000000     O3
    0.2338730000000000    0.7661270000000000    0.7661270000000000     O4
    0.2338730000000000    0.7661270000000000    0.2338730000000000     O5
    0.7661270000000000    0.2338730000000000    0.7661270000000000     O6
    0.2500000000000000    0.2500000000000000    0.2500000000000000    Ba1
    0.7500000000000000    0.7500000000000000    0.7500000000000000    Ba2
    0.0000000000000000    0.0000000000000000    0.0000000000000000    Ta1
    0.5000000000000000    0.5000000000000000    0.5000000000000000    Yb1
