Primitive Cell
  1.000000
   -5.17541000000000    5.17541000000000    5.17541000000000
    5.17541000000000   -5.17541000000000    5.17541000000000
    5.17541000000000    5.17541000000000   -5.17541000000000
  Cu  S   Sb
  12  13   4
DIRECT
    0.2207950000000001    0.2207950000000001    0.0000000000000001    Cu1
    0.7792049999999999    0.7792049999999999    0.0000000000000001    Cu2
    0.0000000000000001    0.2207950000000001    0.2207950000000001    Cu3
    0.0000000000000001    0.7792049999999999    0.7792049999999999    Cu4
    0.2207950000000001    0.0000000000000001    0.2207950000000001    Cu5
    0.7792049999999999    0.0000000000000001    0.7792049999999999    Cu6
    0.7500000000000000    0.5000000000000000    0.2500000000000001    Cu7
    0.5000000000000000    0.7500000000000000    0.2500000000000001    Cu8
    0.2500000000000001    0.5000000000000000    0.7500000000000000    Cu9
    0.5000000000000000    0.2500000000000001    0.7500000000000000   Cu10
    0.2500000000000001    0.7500000000000000    0.5000000000000000   Cu11
    0.7500000000000000    0.2500000000000001    0.5000000000000000   Cu12
    0.4807770000000003    0.4807770000000003    0.2313350000000003     S1
    0.5192229999999995    0.7505580000000001   -0.0000000000000000     S2
    0.2494420000000000    0.2494420000000000    0.7686649999999997     S3
    0.7505580000000001    0.5192229999999995   -0.0000000000000000     S4
    0.2313350000000003    0.4807770000000003    0.4807770000000003     S5
   -0.0000000000000000    0.5192229999999995    0.7505580000000001     S6
    0.7686649999999995    0.2494419999999999    0.2494419999999999     S7
    0.0000000000000001    0.7505580000000001    0.5192229999999997     S8
    0.4807770000000003    0.2313350000000003    0.4807770000000003     S9
    0.7505580000000001    0.0000000000000001    0.5192229999999997    S10
    0.2494419999999999    0.7686649999999995    0.2494419999999999    S11
    0.5192229999999995   -0.0000000000000000    0.7505580000000001    S12
    0.0000000000000001    0.0000000000000001    0.0000000000000001    S13
    0.0000000000000000    0.0000000000000000    0.4584490000000001    Sb1
   -0.0000000000000001    0.4584490000000000   -0.0000000000000001    Sb2
    0.5415510000000000    0.5415510000000000    0.5415509999999999    Sb3
    0.4584490000000000   -0.0000000000000001   -0.0000000000000001    Sb4
