Primitive Cell
  1.000000
   -4.17377900000000    4.17377900000000    4.17377900000000
    4.17377900000000   -4.17377900000000    4.17377900000000
    4.17377900000000    4.17377900000000   -4.17377900000000
  C   Yb
  12   8
DIRECT
    0.5475699999999999    0.2975699999999999    0.2500000000000000     C1
    0.7024300000000001    0.4524300000000001    0.2500000000000000     C2
    0.9524300000000001    0.2024300000000001    0.7500000000000000     C3
    0.7975699999999999    0.0475699999999999    0.7500000000000000     C4
    0.2500000000000000    0.5475699999999999    0.2975699999999999     C5
    0.2500000000000000    0.7024300000000001    0.4524300000000001     C6
    0.7500000000000000    0.9524300000000001    0.2024300000000001     C7
    0.7500000000000000    0.7975699999999999    0.0475699999999999     C8
    0.2975699999999999    0.2500000000000000    0.5475699999999999     C9
    0.4524300000000001    0.2500000000000000    0.7024300000000001    C10
    0.2024300000000001    0.7500000000000000    0.9524300000000001    C11
    0.0475699999999999    0.7500000000000000    0.7975699999999999    C12
    0.1131050000000000    0.1131050000000000    0.1131050000000000    Yb1
    0.8868950000000000    0.5000000000000000   -0.0000000000000000    Yb2
    0.5000000000000000    0.0000000000000000    0.3868950000000000    Yb3
    0.0000000000000000    0.8868950000000000    0.5000000000000000    Yb4
    0.3868950000000000    0.5000000000000000    0.0000000000000000    Yb5
    0.6131050000000000    0.6131050000000000    0.6131050000000000    Yb6
    0.0000000000000000    0.3868950000000000    0.5000000000000000    Yb7
    0.5000000000000000   -0.0000000000000000    0.8868950000000000    Yb8
