Primitive Cell
  1.000000
   12.76609400000000    0.00000000000000    0.00000000000000
    0.00000000000000   12.76609400000000    0.00000000000000
    0.00000000000000    0.00000000000000    4.01748700000000
  Ta  Ba  O 
  10   6  30
DIRECT
    0.0766560000000000    0.2128250000000000    0.5000000000000000    Ta1
    0.9233439999999999    0.7871750000000000    0.5000000000000000    Ta2
    0.7871750000000000    0.0766560000000000    0.5000000000000000    Ta3
    0.2128250000000000    0.9233439999999999    0.5000000000000000    Ta4
    0.5766560000000001    0.2871750000000000    0.5000000000000000    Ta5
    0.4233440000000000    0.7128250000000000    0.5000000000000000    Ta6
    0.2871750000000000    0.4233440000000000    0.5000000000000000    Ta7
    0.7128250000000000    0.5766560000000001    0.5000000000000000    Ta8
    0.0000000000000000    0.5000000000000000    0.5000000000000000    Ta9
    0.5000000000000000    0.0000000000000000    0.5000000000000000   Ta10
    0.1687670000000000    0.6687670000000000    0.0000000000000000    Ba1
    0.8312330000000000    0.3312330000000000    0.0000000000000000    Ba2
    0.3312330000000000    0.1687670000000000    0.0000000000000000    Ba3
    0.6687670000000000    0.8312330000000000    0.0000000000000000    Ba4
    0.0000000000000000    0.0000000000000000    0.0000000000000000    Ba5
    0.5000000000000000    0.5000000000000000    0.0000000000000000    Ba6
    0.0062930000000000    0.6562420000000000    0.5000000000000000     O1
    0.9937070000000000    0.3437580000000000    0.5000000000000000     O2
    0.3437580000000000    0.0062930000000000    0.5000000000000000     O3
    0.6562420000000000    0.9937070000000000    0.5000000000000000     O4
    0.5062930000000000    0.8437580000000000    0.5000000000000000     O5
    0.4937070000000000    0.1562420000000000    0.5000000000000000     O6
    0.8437580000000000    0.4937070000000000    0.5000000000000000     O7
    0.1562420000000000    0.5062930000000000    0.5000000000000000     O8
    0.0684710000000000    0.8592919999999999    0.5000000000000000     O9
    0.9315290000000001    0.1407080000000001    0.5000000000000000    O10
    0.1407080000000001    0.0684710000000000    0.5000000000000000    O11
    0.8592919999999999    0.9315290000000001    0.5000000000000000    O12
    0.5684709999999999    0.6407080000000001    0.5000000000000000    O13
    0.4315290000000000    0.3592919999999999    0.5000000000000000    O14
    0.6407080000000001    0.4315290000000000    0.5000000000000000    O15
    0.3592919999999999    0.5684709999999999    0.5000000000000000    O16
    0.0776810000000000    0.2082450000000000    0.0000000000000000    O17
    0.9223190000000000    0.7917550000000000    0.0000000000000000    O18
    0.7917550000000000    0.0776810000000000    0.0000000000000000    O19
    0.2082450000000000    0.9223190000000000    0.0000000000000000    O20
    0.5776810000000000    0.2917550000000000    0.0000000000000000    O21
    0.4223190000000000    0.7082450000000000    0.0000000000000000    O22
    0.2917550000000000    0.4223190000000000    0.0000000000000000    O23
    0.7082450000000000    0.5776810000000000    0.0000000000000000    O24
    0.2180720000000000    0.2819280000000000    0.5000000000000000    O25
    0.7819280000000000    0.7180720000000000    0.5000000000000000    O26
    0.7180720000000000    0.2180720000000000    0.5000000000000000    O27
    0.2819280000000000    0.7819280000000000    0.5000000000000000    O28
    0.0000000000000000    0.5000000000000000    0.0000000000000000    O29
    0.5000000000000000    0.0000000000000000    0.0000000000000000    O30
