Primitive Cell                          
   1.00000000000000     
    -4.3976584091218482    4.3976584091218482    8.0389502626668428
     4.3976584091218482   -4.3976584091218482    8.0389502626668428
     4.3976584091218482    4.3976584091218482   -8.0389502626668428
   F    Pb   Sr
     2     6    10
Direct
  0.7500000000000000  0.2500000000000000  0.5000000000000000
  0.2500000000000000  0.7500000000000000  0.5000000000000000
  0.8722952027062392  0.6277047972937608  0.5000000000000000
  0.1277047972937556  0.3722952027062444  0.5000000000000000
  0.6277047972937608  0.1277047972937556  0.7554095945875041
  0.3722952027062444  0.8722952027062392  0.2445904054124877
  0.2500000000000000  0.2500000000000000 -0.0000000000000000
  0.7500000000000000  0.7500000000000000 -0.0000000000000000
  0.4924050688266675  0.3108249643689592  0.5000000000000000
  0.5075949311733212  0.6891750356310370  0.5000000000000000
  0.3108249643689592  0.8108249643689630  0.8184198955422837
  0.6891750356310370  0.1891750356310393  0.1815801044577215
  0.8108249643689630  0.9924050688266788  0.5000000000000000
  0.1891750356310393  0.0075949311733236  0.5000000000000000
  0.9924050688266788  0.4924050688266675  0.1815801044577215
  0.0075949311733236  0.5075949311733212  0.8184198955422837
  0.0000000000000000  0.0000000000000000 -0.0000000000000000
  0.5000000000000000  0.5000000000000000 -0.0000000000000000
 
  0.00000000E+00  0.00000000E+00  0.00000000E+00
  0.00000000E+00  0.00000000E+00  0.00000000E+00
  0.00000000E+00  0.00000000E+00  0.00000000E+00
  0.00000000E+00  0.00000000E+00  0.00000000E+00
  0.00000000E+00  0.00000000E+00  0.00000000E+00
  0.00000000E+00  0.00000000E+00  0.00000000E+00
  0.00000000E+00  0.00000000E+00  0.00000000E+00
  0.00000000E+00  0.00000000E+00  0.00000000E+00
  0.00000000E+00  0.00000000E+00  0.00000000E+00
  0.00000000E+00  0.00000000E+00  0.00000000E+00
  0.00000000E+00  0.00000000E+00  0.00000000E+00
  0.00000000E+00  0.00000000E+00  0.00000000E+00
  0.00000000E+00  0.00000000E+00  0.00000000E+00
  0.00000000E+00  0.00000000E+00  0.00000000E+00
  0.00000000E+00  0.00000000E+00  0.00000000E+00
  0.00000000E+00  0.00000000E+00  0.00000000E+00
  0.00000000E+00  0.00000000E+00  0.00000000E+00
  0.00000000E+00  0.00000000E+00  0.00000000E+00
