POSCAR
   1.00000000000000
     0.0000047593505797    2.7901008206081754    2.7901004848188933
     2.7901004651204619    0.0000049224065827    2.7901003219577474
     2.7901006494509528    2.7901008422238860    0.0000047376297870
   Eu   F
     1     2
Direct
  0.5000000119235907  0.4999999913778820  0.4999999861079176
  0.7499999139860049  0.7499999608119534  0.7499999263434503
  0.2500000740904044  0.2500000478101645  0.2500000875486321