POSCAR                                  
   1.00000000000000     
     4.4840489999999997    0.0000000000000000    0.0000000000000000
     2.2420244999999999    3.8833003499999998    0.0000000000000000
     2.2420244999999999    1.2944334500000001    3.6612106799999999
   Ru   Sb   Zr
     1     1     1
Direct
  0.7500000003128875  0.7499999931850567  0.7499999972686595
  0.4999999964823090  0.5000000025751277  0.5000000000000000
  0.0000000000000000  0.0000000000000000  0.0000000000000000
 
  0.00000000E+00  0.00000000E+00  0.00000000E+00
  0.00000000E+00  0.00000000E+00  0.00000000E+00
  0.00000000E+00  0.00000000E+00  0.00000000E+00
