Primitive Cell
  1.000000
    0.00000000000000    4.00623527500000    4.00623527500000
    4.00623527500000    0.00000000000000    4.00623527500000
    4.00623527500000    4.00623527500000    0.00000000000000
  Sr  Mo  Co  O 
   2   1   1   6
DIRECT
    0.2500000000000000    0.2500000000000000    0.2500000000000000    Sr1
    0.7500000000000000    0.7500000000000000    0.7500000000000000    Sr2
    0.5000000000000000    0.5000000000000000    0.5000000000000000    Mo1
    0.0000000000000000    0.0000000000000000    0.0000000000000000    Co1
    0.2586812500000000    0.2586812500000000    0.7413187500000000     O1
    0.7413187500000000    0.7413187500000000    0.2586812500000000     O2
    0.7413187500000000    0.2586812500000000    0.2586812500000000     O3
    0.2586812500000000    0.7413187500000000    0.7413187500000000     O4
    0.2586812500000000    0.7413187500000000    0.2586812500000000     O5
    0.7413187500000000    0.2586812500000000    0.7413187500000000     O6
