cif2pos.py                              
   1.00000000000000     
     3.9173477615744439    0.0000000000000000    0.0000000000000000
     0.0000000000000000    3.9173477615744439    0.0000000000000000
     0.0000000000000000    0.0000000000000000    9.4798655353049401
   Rb   S    Cu
     1     3     4
Direct
 -0.0000000000000000  0.0000000000000000  0.5000000000000000
  0.5000000000000000  0.5000000000000000  0.2844513102343929
  0.5000000000000000  0.5000000000000000  0.7155486897656276
 -0.0000000000000000  0.0000000000000000 -0.0000000000000000
 -0.0000000000000000  0.5000000000000000  0.1558376726971293
  0.0000000000000000  0.5000000000000000  0.8441623273028729
  0.5000000000000000 -0.0000000000000000  0.1558376726971293
  0.5000000000000000 -0.0000000000000000  0.8441623273028729
 
  0.00000000E+00  0.00000000E+00  0.00000000E+00
  0.00000000E+00  0.00000000E+00  0.00000000E+00
  0.00000000E+00  0.00000000E+00  0.00000000E+00
  0.00000000E+00  0.00000000E+00  0.00000000E+00
  0.00000000E+00  0.00000000E+00  0.00000000E+00
  0.00000000E+00  0.00000000E+00  0.00000000E+00
  0.00000000E+00  0.00000000E+00  0.00000000E+00
  0.00000000E+00  0.00000000E+00  0.00000000E+00
