Primitive Cell
  1.000000
   -4.18154600000000    4.18154600000000    4.18154600000000
    4.18154600000000   -4.18154600000000    4.18154600000000
    4.18154600000000    4.18154600000000   -4.18154600000000
  As  Fe  La
  12   4   1
DIRECT
    0.5008259999999995    0.3439989999999998    0.1568269999999997    As1
    0.4991740000000005    0.6560010000000002    0.8431730000000003    As2
    0.1871720000000001    0.3439989999999998    0.8431730000000003    As3
    0.8128279999999999    0.6560010000000003    0.1568269999999997    As4
    0.1568269999999998    0.5008259999999995    0.3439989999999998    As5
    0.8431730000000002    0.4991740000000005    0.6560010000000003    As6
    0.8431730000000002    0.1871720000000001    0.3439989999999998    As7
    0.1568269999999998    0.8128279999999999    0.6560010000000002    As8
    0.3439989999999998    0.1568269999999997    0.5008259999999995    As9
    0.6560010000000002    0.8431730000000003    0.4991740000000005   As10
    0.3439989999999998    0.8431730000000003    0.1871720000000001   As11
    0.6560010000000003    0.1568269999999997    0.8128279999999999   As12
    0.5000000000000000    0.5000000000000000    0.5000000000000000    Fe1
    0.0000000000000000    0.0000000000000000    0.5000000000000000    Fe2
    0.5000000000000000    0.0000000000000000    0.0000000000000000    Fe3
    0.0000000000000000    0.5000000000000000    0.0000000000000000    Fe4
    0.0000000000000000    0.0000000000000000    0.0000000000000000    La1
