Primitive Cell
  1.000000
    0.00000000000000    5.12915300000000    5.12915300000000
    5.12915300000000    0.00000000000000    5.12915300000000
    5.12915300000000    5.12915300000000    0.00000000000000
  Cl  W   Rb
   6   1   2
DIRECT
    0.2337150000000001    0.2337150000000001    0.7662849999999999    Cl1
    0.7662849999999999    0.7662849999999999    0.2337150000000001    Cl2
    0.7662849999999999    0.2337150000000001    0.2337150000000001    Cl3
    0.2337150000000001    0.7662849999999999    0.7662849999999999    Cl4
    0.2337150000000001    0.7662849999999999    0.2337150000000001    Cl5
    0.7662849999999999    0.2337150000000001    0.7662849999999999    Cl6
    0.0000000000000000    0.0000000000000000    0.0000000000000000     W1
    0.2500000000000000    0.2500000000000000    0.2500000000000000    Rb1
    0.7500000000000000    0.7500000000000000    0.7500000000000000    Rb2
