Primitive Cell
  1.000000
    5.85957190902639    0.00000000000000    0.00000000000000
   -2.92978595451319    5.07453812851853    0.00000000000000
    0.00000000000000    0.00000000000000   14.98818900000000
  Pb  Nb  S 
   2   6  12
DIRECT
    0.0000000000000000    0.0000000000000000    0.0000000000000000    Pb1
    0.0000000000000000    0.0000000000000000    0.5000000000000000    Pb2
    0.3333333333333333    0.6666666666666666    0.2500000000000000    Nb1
    0.6666666666666667    0.3333333333333334    0.7500000000000000    Nb2
    0.3333333333333334    0.6666666666666667    0.7500000000000000    Nb3
    0.6666666666666666    0.3333333333333333    0.2500000000000000    Nb4
    0.0000000000000000    0.0000000000000000    0.2500000000000000    Nb5
    0.0000000000000000    0.0000000000000000    0.7500000000000000    Nb6
    0.0000000000000000    0.3361060000000001    0.1460650000000002     S1
    0.0000000000000000    0.6638939999999999    0.8539349999999998     S2
    0.6638939999999999    0.0000000000000000    0.6460650000000002     S3
    0.3361060000000001    0.0000000000000000    0.3539349999999998     S4
    0.6638939999999999    0.6638939999999999    0.1460650000000002     S5
    0.3361060000000001    0.3361060000000001    0.8539349999999998     S6
    0.0000000000000000    0.6638939999999999    0.6460650000000002     S7
    0.0000000000000000    0.3361060000000001    0.3539349999999998     S8
    0.3361060000000001    0.0000000000000000    0.1460650000000002     S9
    0.6638939999999999    0.0000000000000000    0.8539349999999998    S10
    0.3361060000000001    0.3361060000000001    0.6460650000000002    S11
    0.6638939999999999    0.6638939999999999    0.3539349999999998    S12
