Primitive Cell
  1.000000
    0.00000000000000    5.03568100000000    5.03568100000000
    5.03568100000000    0.00000000000000    5.03568100000000
    5.03568100000000    5.03568100000000    0.00000000000000
  Cl  W   Tl
   6   1   2
DIRECT
    0.2375590000000001    0.2375590000000001    0.7624409999999999    Cl1
    0.7624409999999999    0.7624409999999999    0.2375590000000001    Cl2
    0.7624409999999999    0.2375590000000001    0.2375590000000001    Cl3
    0.2375590000000001    0.7624409999999999    0.7624409999999999    Cl4
    0.2375590000000001    0.7624409999999999    0.2375590000000001    Cl5
    0.7624409999999999    0.2375590000000001    0.7624409999999999    Cl6
    0.0000000000000000    0.0000000000000000    0.0000000000000000     W1
    0.2500000000000000    0.2500000000000000    0.2500000000000000    Tl1
    0.7500000000000000    0.7500000000000000    0.7500000000000000    Tl2
