Primitive Cell
  1.000000
    0.00000000000000    4.27547600000000    4.27547600000000
    4.27547600000000    0.00000000000000    4.27547600000000
    4.27547600000000    4.27547600000000    0.00000000000000
  Yb  O   Ba  Sb
   1   6   2   1
DIRECT
    0.5000000000000000    0.5000000000000000    0.5000000000000000    Yb1
    0.2347380000000001    0.2347380000000001    0.7652619999999999     O1
    0.7652619999999999    0.7652619999999999    0.2347380000000001     O2
    0.7652619999999999    0.2347380000000001    0.2347380000000001     O3
    0.2347380000000001    0.7652619999999999    0.7652619999999999     O4
    0.2347380000000001    0.7652619999999999    0.2347380000000001     O5
    0.7652619999999999    0.2347380000000001    0.7652619999999999     O6
    0.2500000000000000    0.2500000000000000    0.2500000000000000    Ba1
    0.7500000000000000    0.7500000000000000    0.7500000000000000    Ba2
    0.0000000000000000    0.0000000000000000    0.0000000000000000    Sb1
