Primitive Cell
  1.000000
    0.00000000000000    5.34692600000000    5.34692600000000
    5.34692600000000    0.00000000000000    5.34692600000000
    5.34692600000000    5.34692600000000    0.00000000000000
  Cl  Ta  Cs
   6   1   2
DIRECT
    0.2267690000000000    0.2267690000000000    0.7732310000000000    Cl1
    0.7732310000000000    0.7732310000000000    0.2267690000000000    Cl2
    0.7732310000000000    0.2267690000000000    0.2267690000000000    Cl3
    0.2267690000000000    0.7732310000000000    0.7732310000000000    Cl4
    0.2267690000000000    0.7732310000000000    0.2267690000000000    Cl5
    0.7732310000000000    0.2267690000000000    0.7732310000000000    Cl6
    0.0000000000000000    0.0000000000000000    0.0000000000000000    Ta1
    0.2500000000000000    0.2500000000000000    0.2500000000000000    Cs1
    0.7500000000000000    0.7500000000000000    0.7500000000000000    Cs2
