Primitive Cell
  1.000000
   11.92014500000000    0.00000000000000    0.00000000000000
    0.00000000000000   12.35059400000000    0.00000000000000
    0.00000000000000    0.00000000000000    3.61232700000000
  Sc  Cl  B 
   8  12   2
DIRECT
    0.1048810000000000    0.0831680000000000    0.0000000000000000    Sc1
    0.8951190000000000    0.9168320000000000    0.0000000000000000    Sc2
    0.6048810000000000    0.4168320000000000    0.0000000000000000    Sc3
    0.3951190000000000    0.5831680000000000    0.0000000000000000    Sc4
    0.1245660000000000    0.8536250000000000    0.5000000000000000    Sc5
    0.8754340000000000    0.1463750000000000    0.5000000000000000    Sc6
    0.6245660000000000    0.6463750000000000    0.5000000000000000    Sc7
    0.3754340000000000    0.3536250000000001    0.5000000000000000    Sc8
    0.0207870000000000    0.7435180000000000    0.0000000000000000    Cl1
    0.9792130000000000    0.2564820000000000    0.0000000000000000    Cl2
    0.5207870000000000    0.7564820000000000    0.0000000000000000    Cl3
    0.4792130000000000    0.2435179999999999    0.0000000000000000    Cl4
    0.2315070000000000    0.1813130000000000    0.5000000000000000    Cl5
    0.7684930000000000    0.8186869999999999    0.5000000000000000    Cl6
    0.7315070000000000    0.3186870000000000    0.5000000000000000    Cl7
    0.2684930000000000    0.6813130000000001    0.5000000000000000    Cl8
    0.2433720000000000    0.4304570000000000    0.0000000000000000    Cl9
    0.7566280000000000    0.5695430000000000    0.0000000000000000   Cl10
    0.7433720000000000    0.0695430000000000    0.0000000000000000   Cl11
    0.2566280000000000    0.9304570000000000    0.0000000000000000   Cl12
    0.0000000000000000    0.0000000000000000    0.5000000000000000     B1
    0.5000000000000000    0.5000000000000000    0.5000000000000000     B2
