Primitive Cell
  1.000000
   -5.10591500000000    5.10591500000000    5.10591500000000
    5.10591500000000   -5.10591500000000    5.10591500000000
    5.10591500000000    5.10591500000000   -5.10591500000000
  S   Cu  As
  13  12   4
DIRECT
    0.7592150000000000    0.7592150000000000    0.2392100000000000     S1
    0.2407850000000000    0.4799949999999999    0.0000000000000000     S2
    0.5200050000000001    0.5200050000000001    0.7607900000000001     S3
    0.4799949999999999    0.2407850000000000    0.0000000000000000     S4
    0.2392100000000000    0.7592150000000000    0.7592150000000000     S5
    0.0000000000000000    0.2407850000000000    0.4799949999999999     S6
    0.7607900000000001    0.5200050000000001    0.5200050000000001     S7
    0.0000000000000000    0.4799949999999999    0.2407850000000000     S8
    0.7592150000000000    0.2392100000000000    0.7592150000000000     S9
    0.4799949999999999    0.0000000000000000    0.2407850000000000    S10
    0.5200050000000001    0.7607900000000001    0.5200050000000001    S11
    0.2407850000000000    0.0000000000000000    0.4799949999999999    S12
    0.0000000000000001    0.0000000000000001    0.0000000000000001    S13
    0.2211530000000001    0.2211530000000001    0.0000000000000001    Cu1
    0.7788469999999998    0.7788469999999998    0.0000000000000001    Cu2
    0.0000000000000001    0.2211530000000001    0.2211530000000001    Cu3
    0.0000000000000001    0.7788469999999998    0.7788469999999998    Cu4
    0.2211530000000001    0.0000000000000001    0.2211530000000001    Cu5
    0.7788469999999998    0.0000000000000001    0.7788469999999998    Cu6
    0.7500000000000000    0.5000000000000000    0.2500000000000001    Cu7
    0.5000000000000000    0.7500000000000000    0.2500000000000001    Cu8
    0.2500000000000001    0.5000000000000000    0.7500000000000000    Cu9
    0.5000000000000000    0.2500000000000001    0.7500000000000000   Cu10
    0.2500000000000001    0.7500000000000000    0.5000000000000000   Cu11
    0.7500000000000000    0.2500000000000001    0.5000000000000000   Cu12
    0.4724920000000000    0.4724920000000000    0.4724920000000000    As1
    0.5275080000000001    0.0000000000000000    0.0000000000000000    As2
    0.0000000000000000    0.0000000000000000    0.5275080000000001    As3
    0.0000000000000000    0.5275080000000001    0.0000000000000000    As4
